set VV := 0 1 2 3 4 5 6 7 8 9 10 11 12 13 14 15 16 17 18 19 20 21 22 23 24 25 26 27 28 29 30 31 32 33 34 35 ;
set VS := 0 1 2 3 4 5 6 7 8 9 10 11 12 13 14 15 16 17 18 19 20 21 22 23 24 25 26 27 28 29 30 31 32 33 34 35 36 37 38 39 40 41 42 43 44 45 46 47 48 49 50 51 52 53 54 55 56 57 58 59 60 61 62 63 64 65 66 67 68 69 70 71 72 73 74 75 76 ;
param cv := 
0 14
1 11
2 20
3 24
4 12
5 19
6 17
7 22
8 11
9 14
10 22
11 15
12 24
13 22
14 15
15 19
16 18
17 11
18 17
19 23
20 11
21 10
22 19
23 25
24 22
25 21
26 17
27 16
28 14
29 16
30 25
31 11
32 18
33 12
34 20
35 25
;
param cs := 
0 24
1 26
2 25
3 27
4 37
5 28
6 37
7 29
8 32
9 22
10 40
11 26
12 25
13 37
14 31
15 29
16 29
17 21
18 38
19 37
20 20
21 40
22 25
23 38
24 40
25 40
26 40
27 20
28 35
29 21
30 26
31 39
32 26
33 30
34 31
35 25
36 26
37 29
38 37
39 21
40 39
41 37
42 22
43 29
44 23
45 33
46 23
47 32
48 36
49 28
50 27
51 28
52 31
53 20
54 21
55 21
56 39
57 30
58 20
59 25
60 38
61 24
62 33
63 38
64 23
65 29
66 37
67 34
68 21
69 39
70 27
71 39
72 20
73 20
74 27
75 32
76 29
;
param bv:	 0 1 2 3 4 5 6 7 8 9 10 11 12 13 14 15 16 17 18 19 20 21 22 23 24 25 26 27 28 29 30 31 32 33 34 35 := 
		0 0 0 0 0 0 0 0 0 0 0 0 0 0 0 0 0 0 20 0 0 0 0 22 0 0 0 0 0 0 0 0 24 0 0 0 0 
		1 0 0 0 0 0 0 0 0 0 0 0 0 0 0 0 0 0 0 0 0 0 0 0 0 0 0 0 0 0 0 0 22 0 0 0 0 
		2 0 0 0 0 0 0 18 0 0 0 0 0 0 18 25 0 0 0 0 0 0 0 0 0 0 0 0 0 0 0 0 0 0 0 0 0 
		3 0 0 0 0 17 0 0 15 0 0 0 0 0 0 0 0 0 0 0 0 0 0 0 0 0 20 21 0 0 0 0 0 0 0 0 0 
		4 0 0 0 0 0 21 0 0 0 0 0 0 0 0 0 0 0 0 0 0 0 0 0 0 11 21 0 0 0 0 0 24 0 0 0 0 
		5 0 0 0 0 0 0 0 0 0 0 0 0 0 0 18 0 20 0 15 0 0 0 0 0 0 0 0 0 0 0 0 0 0 0 0 0 
		6 0 0 0 0 0 0 0 0 13 0 10 0 0 0 0 0 0 0 0 0 0 0 0 0 0 0 0 0 0 0 0 0 0 0 0 21 
		7 0 0 0 0 0 0 0 0 0 0 0 0 0 0 0 0 0 0 0 0 13 0 0 0 17 0 0 0 0 0 0 0 0 0 23 0 
		8 0 0 0 0 0 0 0 0 0 20 0 0 0 0 25 0 0 0 0 0 0 0 0 0 0 0 0 0 24 20 0 0 0 0 14 23 
		9 0 0 0 0 0 0 0 0 0 0 0 0 0 0 19 0 0 0 0 22 0 0 15 0 0 0 0 0 0 0 0 0 0 21 0 19 
		10 0 0 0 0 0 0 0 0 0 0 0 12 0 0 22 0 0 0 0 0 0 25 0 0 0 0 0 0 0 0 0 0 0 0 0 21 
		11 0 0 0 0 0 0 0 0 0 0 0 0 0 0 0 0 0 0 0 0 0 0 0 0 0 0 0 0 0 0 22 0 0 0 0 10 
		12 0 0 0 0 0 0 0 0 0 0 0 0 0 0 0 0 13 0 0 0 0 0 0 0 0 0 0 0 0 0 20 0 11 0 0 0 
		13 0 0 0 0 0 0 0 0 0 0 0 0 0 0 14 0 0 0 0 0 0 0 0 0 0 0 0 0 0 0 0 0 0 0 0 0 
		14 0 0 0 0 0 0 0 0 0 0 0 0 0 0 0 0 0 0 0 0 0 0 0 0 0 0 0 0 0 0 0 0 0 0 0 0 
		15 0 0 0 0 0 0 0 0 0 0 0 0 0 0 0 0 0 0 20 0 0 0 0 0 0 0 0 0 0 18 0 0 21 0 0 0 
		16 0 0 0 0 0 0 0 0 0 0 0 0 0 0 0 0 0 0 0 0 0 0 0 0 0 14 21 0 0 0 0 0 0 0 0 0 
		17 0 0 0 0 0 0 0 0 0 0 0 0 0 0 0 0 0 0 0 0 0 0 0 0 0 0 0 0 0 0 0 0 0 14 0 0 
		18 0 0 0 0 0 0 0 0 0 0 0 0 0 0 0 0 0 0 0 0 0 13 0 0 22 0 0 0 0 0 0 0 0 0 10 0 
		19 0 0 0 0 0 0 0 0 0 0 0 0 0 0 0 0 0 0 0 0 0 0 0 0 0 0 0 0 0 0 0 20 0 0 0 0 
		20 0 0 0 0 0 0 0 0 0 0 0 0 0 0 0 0 0 0 0 0 0 0 0 0 0 0 0 0 0 0 0 0 0 0 15 25 
		21 0 0 0 0 0 0 0 0 0 0 0 0 0 0 0 0 0 0 0 0 0 0 0 0 0 0 0 0 0 0 0 0 15 0 0 0 
		22 0 0 0 0 0 0 0 0 0 0 0 0 0 0 0 0 0 0 0 0 0 0 0 0 0 0 11 24 0 0 0 0 0 16 0 0 
		23 0 0 0 0 0 0 0 0 0 0 0 0 0 0 0 0 0 0 0 0 0 0 0 0 0 0 0 0 0 21 0 0 0 0 0 0 
		24 0 0 0 0 0 0 0 0 0 0 0 0 0 0 0 0 0 0 0 0 0 0 0 0 0 0 0 0 0 0 20 0 0 0 0 0 
		25 0 0 0 0 0 0 0 0 0 0 0 0 0 0 0 0 0 0 0 0 0 0 0 0 0 0 25 0 0 0 0 0 15 0 19 0 
		26 0 0 0 0 0 0 0 0 0 0 0 0 0 0 0 0 0 0 0 0 0 0 0 0 0 0 0 0 0 0 0 0 0 0 0 22 
		27 0 0 0 0 0 0 0 0 0 0 0 0 0 0 0 0 0 0 0 0 0 0 0 0 0 0 0 0 0 0 0 0 0 0 0 0 
		28 0 0 0 0 0 0 0 0 0 0 0 0 0 0 0 0 0 0 0 0 0 0 0 0 0 0 0 0 0 0 0 0 0 0 0 0 
		29 0 0 0 0 0 0 0 0 0 0 0 0 0 0 0 0 0 0 0 0 0 0 0 0 0 0 0 0 0 0 0 0 0 0 22 0 
		30 0 0 0 0 0 0 0 0 0 0 0 0 0 0 0 0 0 0 0 0 0 0 0 0 0 0 0 0 0 0 0 23 0 0 14 0 
		31 0 0 0 0 0 0 0 0 0 0 0 0 0 0 0 0 0 0 0 0 0 0 0 0 0 0 0 0 0 0 0 0 0 0 0 0 
		32 0 0 0 0 0 0 0 0 0 0 0 0 0 0 0 0 0 0 0 0 0 0 0 0 0 0 0 0 0 0 0 0 0 0 0 0 
		33 0 0 0 0 0 0 0 0 0 0 0 0 0 0 0 0 0 0 0 0 0 0 0 0 0 0 0 0 0 0 0 0 0 0 0 0 
		34 0 0 0 0 0 0 0 0 0 0 0 0 0 0 0 0 0 0 0 0 0 0 0 0 0 0 0 0 0 0 0 0 0 0 0 0 
		35 0 0 0 0 0 0 0 0 0 0 0 0 0 0 0 0 0 0 0 0 0 0 0 0 0 0 0 0 0 0 0 0 0 0 0 0 
;
param bs:	 0 1 2 3 4 5 6 7 8 9 10 11 12 13 14 15 16 17 18 19 20 21 22 23 24 25 26 27 28 29 30 31 32 33 34 35 36 37 38 39 40 41 42 43 44 45 46 47 48 49 50 51 52 53 54 55 56 57 58 59 60 61 62 63 64 65 66 67 68 69 70 71 72 73 74 75 76 := 
		0 0 0 0 35 0 0 0 0 0 0 0 0 0 0 0 0 0 0 0 0 0 0 0 0 0 35 0 0 0 0 0 0 0 0 0 36 0 38 0 0 0 0 0 0 0 33 0 0 0 34 34 0 0 0 38 0 0 0 0 0 20 39 0 0 0 0 0 0 29 0 0 0 0 0 0 40 0 
		1 0 0 0 0 0 0 0 0 0 21 0 0 0 0 0 31 0 0 0 0 0 0 21 0 35 0 0 0 0 0 0 0 0 0 37 0 0 0 0 0 0 0 0 0 0 0 0 0 31 0 0 0 0 0 0 0 0 0 0 0 0 0 0 0 0 0 30 0 0 0 35 0 0 0 34 0 0 
		2 0 0 0 0 39 0 0 0 0 0 0 0 0 0 0 0 0 0 20 39 0 0 0 22 0 0 0 0 0 0 0 0 0 0 0 0 0 0 0 0 0 0 0 33 0 0 0 0 0 0 0 0 0 0 0 0 0 0 26 0 0 0 0 0 0 0 0 0 0 0 0 0 0 0 0 0 0 
		3 35 0 0 0 0 0 0 0 0 0 0 23 30 0 27 0 0 0 0 0 0 0 0 0 0 0 0 0 0 0 0 0 0 0 0 0 0 0 0 0 0 0 0 38 0 0 0 0 0 0 0 0 0 0 0 0 0 0 0 0 0 0 0 0 36 0 0 0 0 0 0 0 0 0 0 0 0 
		4 0 0 39 0 0 0 0 0 0 0 0 0 0 0 0 0 0 0 0 0 0 0 0 0 0 0 0 0 0 0 0 0 0 30 0 0 0 0 0 0 0 0 0 0 0 0 23 0 0 35 0 0 0 0 0 0 0 0 0 0 0 39 0 0 0 27 0 0 0 0 0 0 0 0 0 0 0 
		5 0 0 0 0 0 0 22 0 0 0 0 0 0 0 0 21 0 0 0 0 32 33 0 0 0 0 0 0 0 0 32 0 0 0 0 0 0 0 0 0 0 0 0 0 0 0 0 0 0 0 0 0 0 0 0 30 0 29 0 0 0 0 0 0 0 0 0 0 0 0 0 0 0 0 0 0 38 
		6 0 0 0 0 0 22 0 0 0 0 0 0 0 0 0 0 0 0 33 0 23 0 0 0 0 0 0 0 0 0 0 0 0 20 0 0 0 22 0 29 0 0 0 0 0 0 0 0 0 0 0 0 0 25 0 0 0 0 0 0 0 0 0 0 0 0 0 0 0 0 0 0 28 0 0 0 0 
		7 0 0 0 0 0 0 0 0 0 0 0 0 0 0 40 0 0 0 0 0 0 30 0 0 38 0 0 0 0 0 0 0 30 0 30 0 29 0 0 0 0 30 0 0 0 0 0 0 0 0 0 0 0 0 0 0 0 0 0 0 23 0 0 0 0 0 0 24 23 0 0 0 0 0 0 0 30 
		8 0 0 0 0 0 0 0 0 0 0 0 0 0 22 0 0 0 0 0 0 28 34 0 0 39 22 0 0 0 0 0 0 24 0 0 0 0 0 0 0 0 0 0 0 0 32 0 0 38 0 0 0 0 0 0 24 0 0 0 0 0 0 0 0 0 0 0 0 0 27 27 0 28 0 0 40 0 
		9 0 21 0 0 0 0 0 0 0 0 0 0 0 0 0 0 0 0 30 0 0 23 0 0 0 22 0 0 0 0 0 0 0 0 0 0 0 0 0 0 0 0 31 0 30 0 0 0 0 0 0 0 0 0 0 35 0 0 0 0 0 39 0 0 0 0 0 0 27 0 0 0 38 0 0 0 0 
		10 0 0 0 0 0 0 0 0 0 0 0 0 39 24 0 0 0 0 0 0 0 0 0 0 0 25 0 0 39 0 0 0 0 0 0 0 0 0 0 0 0 0 0 0 35 0 0 24 0 0 0 0 0 0 38 0 40 0 24 0 25 0 0 24 0 0 25 0 0 0 23 0 0 0 0 0 0 
		11 0 0 0 23 0 0 0 0 0 0 0 0 0 0 0 0 0 0 0 20 0 0 0 0 0 0 0 0 0 0 0 0 29 0 0 0 0 0 40 0 0 0 0 30 0 0 0 0 0 0 0 0 0 0 0 0 0 0 0 0 0 0 0 0 0 0 0 0 0 0 0 32 0 0 0 0 22 
		12 0 0 0 30 0 0 0 0 0 0 39 0 0 0 0 0 0 31 0 0 0 0 0 0 0 0 0 0 0 0 0 0 0 0 0 0 39 0 0 0 0 0 35 0 34 0 0 32 0 0 0 22 0 0 37 29 0 0 0 0 0 0 0 0 0 0 27 0 0 0 25 0 0 0 0 0 34 
		13 0 0 0 0 0 0 0 0 22 0 24 0 0 0 20 0 0 0 0 0 0 0 0 0 0 0 0 0 0 0 0 0 0 31 0 0 0 0 0 22 0 0 0 0 0 0 0 0 32 29 0 0 0 0 24 0 0 0 0 0 21 0 0 0 0 0 0 0 0 0 0 0 0 0 0 0 0 
		14 0 0 0 27 0 0 0 40 0 0 0 0 0 20 0 31 0 0 0 0 0 0 0 0 24 36 0 0 0 0 0 0 0 0 37 0 0 0 0 38 0 0 0 0 0 0 0 0 0 0 0 0 0 0 0 0 0 0 0 28 0 0 0 0 0 0 31 0 0 0 0 0 0 0 0 0 0 
		15 0 31 0 0 0 21 0 0 0 0 0 0 0 0 31 0 20 0 0 0 0 0 0 0 23 0 0 0 0 0 0 0 0 0 0 0 0 0 0 0 0 0 0 0 0 0 0 0 0 39 0 0 0 0 0 0 0 0 0 0 0 0 0 0 0 0 0 0 0 0 0 0 0 0 0 0 0 
		16 0 0 0 0 0 0 0 0 0 0 0 0 0 0 0 20 0 0 0 0 0 0 0 0 0 0 0 0 0 0 0 0 0 0 0 0 0 0 0 0 0 0 0 0 0 0 0 0 0 0 0 0 40 0 0 0 0 0 0 37 0 0 0 0 0 0 0 0 0 0 0 0 0 33 0 0 0 
		17 0 0 0 0 0 0 0 0 0 0 0 0 31 0 0 0 0 0 22 31 0 0 0 0 0 0 0 0 0 0 0 21 0 0 0 0 0 0 0 0 0 0 0 26 0 0 0 0 0 0 0 0 0 0 0 0 0 0 0 28 20 0 0 0 23 20 0 0 32 0 0 0 0 0 0 0 39 
		18 0 0 20 0 0 0 33 0 0 30 0 0 0 0 0 0 0 22 0 0 0 0 0 0 0 37 32 0 0 0 0 0 27 0 0 0 0 0 21 0 0 0 0 0 0 0 0 0 0 0 0 0 0 39 28 0 0 0 0 0 0 0 0 0 0 0 0 0 24 0 0 0 0 0 0 0 0 
		19 0 0 39 0 0 0 0 0 0 0 0 20 0 0 0 0 0 31 0 0 0 0 0 0 0 0 0 0 0 0 0 0 0 25 0 0 20 0 0 0 36 0 0 0 0 0 0 0 0 38 22 0 0 0 0 0 0 0 0 0 0 38 0 0 0 0 20 0 0 0 0 0 0 0 0 0 20 
		20 0 0 0 0 0 32 23 0 28 0 0 0 0 0 0 0 0 0 0 0 0 28 0 0 0 0 0 0 0 0 0 0 0 0 0 28 0 0 0 0 0 0 0 0 0 0 0 0 39 0 0 0 0 0 0 0 0 0 0 0 0 0 26 0 0 0 0 0 0 0 0 0 23 0 0 0 0 
		21 0 0 0 0 0 33 0 30 34 23 0 0 0 0 0 0 0 0 0 0 28 0 0 0 0 0 0 31 0 0 0 0 0 0 0 0 0 0 0 29 0 0 0 0 0 0 0 0 0 0 0 32 0 0 0 23 37 0 0 0 0 31 0 0 0 0 0 0 38 0 0 0 37 0 0 0 0 
		22 0 21 0 0 0 0 0 0 0 0 0 0 0 0 0 0 0 0 0 0 0 0 0 0 0 0 0 0 0 0 0 0 0 36 0 0 0 0 0 0 0 26 0 0 0 0 0 21 0 0 0 20 0 0 30 32 0 0 0 0 37 0 0 0 0 22 0 0 0 0 0 0 0 0 0 0 0 
		23 0 0 22 0 0 0 0 0 0 0 0 0 0 0 0 0 0 0 0 0 0 0 0 0 0 0 0 0 30 0 0 0 0 0 0 34 37 0 0 0 0 0 40 0 31 0 0 0 0 20 0 0 0 0 0 0 0 0 0 20 0 0 0 0 0 29 0 0 0 0 0 0 0 0 0 27 0 
		24 0 35 0 0 0 0 0 38 39 0 0 0 0 0 24 23 0 0 0 0 0 0 0 0 0 0 0 0 0 0 0 0 0 0 0 0 0 0 0 0 0 0 0 0 0 0 0 0 0 23 0 0 0 0 0 25 0 34 0 0 0 0 0 0 0 0 0 0 0 0 0 0 0 0 0 0 0 
		25 35 0 0 0 0 0 0 0 22 22 25 0 0 0 36 0 0 0 37 0 0 0 0 0 0 0 0 0 0 27 0 0 0 0 0 36 0 0 0 0 0 0 37 0 0 38 20 0 0 0 0 0 0 0 0 0 0 0 0 0 0 28 0 0 0 0 0 0 0 0 0 0 0 0 27 0 0 
		26 0 0 0 0 0 0 0 0 0 0 0 0 0 0 0 0 0 0 32 0 0 0 0 0 0 0 0 0 0 25 0 0 0 20 0 0 0 0 0 0 0 38 0 0 26 25 0 0 0 0 0 40 0 0 0 0 0 0 0 0 0 32 0 0 0 0 0 0 0 0 0 0 0 0 31 0 28 
		27 0 0 0 0 0 0 0 0 0 0 0 0 0 0 0 0 0 0 0 0 0 31 0 0 0 0 0 0 0 0 0 0 0 0 0 0 0 0 30 30 0 0 0 29 0 32 0 0 0 0 20 0 0 0 0 33 0 32 0 0 0 0 0 0 0 0 33 0 0 0 0 0 0 0 0 0 0 
		28 0 0 0 0 0 0 0 0 0 0 39 0 0 0 0 0 0 0 0 0 0 0 0 30 0 0 0 0 0 0 0 0 0 0 0 0 0 0 0 0 0 0 0 0 0 0 0 25 0 0 0 0 0 0 24 0 0 0 28 0 0 0 0 0 31 0 0 0 0 0 0 0 28 0 0 0 0 
		29 0 0 0 0 0 0 0 0 0 0 0 0 0 0 0 0 0 0 0 0 0 0 0 0 0 27 25 0 0 0 0 0 0 0 0 0 0 0 26 0 38 0 0 0 40 0 0 0 0 0 0 0 0 0 34 0 0 0 0 0 30 0 0 0 0 0 0 0 0 0 0 0 0 0 0 0 0 
		30 0 0 0 0 0 32 0 0 0 0 0 0 0 0 0 0 0 0 0 0 0 0 0 0 0 0 0 0 0 0 0 0 0 0 0 0 0 0 0 0 0 0 0 0 0 0 0 0 0 31 0 0 0 0 0 0 0 0 0 0 34 0 0 0 0 0 0 0 0 0 0 0 0 0 0 0 0 
		31 0 0 0 0 0 0 0 0 0 0 0 0 0 0 0 0 0 21 0 0 0 0 0 0 0 0 0 0 0 0 0 0 39 0 0 0 0 0 36 0 0 0 0 0 0 0 0 0 0 0 0 0 0 0 0 0 0 0 0 0 0 0 0 0 0 40 0 0 0 0 0 0 0 0 28 0 0 
		32 0 0 0 0 0 0 0 30 24 0 0 29 0 0 0 0 0 0 27 0 0 0 0 0 0 0 0 0 0 0 0 39 0 0 0 0 0 0 20 0 0 0 0 0 0 0 0 0 0 0 0 0 0 0 0 0 0 0 0 31 0 0 0 0 0 0 0 0 0 0 0 0 0 0 0 0 0 
		33 0 0 0 0 30 0 20 0 0 0 0 0 0 31 0 0 0 0 0 25 0 0 36 0 0 0 20 0 0 0 0 0 0 0 0 0 22 0 0 36 0 0 0 0 0 0 0 34 0 0 0 0 0 0 0 0 0 0 0 0 0 0 0 0 0 0 33 23 32 0 35 0 0 0 0 32 0 
		34 0 37 0 0 0 0 0 30 0 0 0 0 0 0 37 0 0 0 0 0 0 0 0 0 0 0 0 0 0 0 0 0 0 0 0 0 0 0 0 0 0 0 0 0 0 0 0 0 0 35 0 0 25 0 0 0 0 0 0 0 0 0 0 0 0 0 0 0 0 0 0 0 0 0 0 38 0 
		35 36 0 0 0 0 0 0 0 0 0 0 0 0 0 0 0 0 0 0 0 28 0 0 34 0 36 0 0 0 0 0 0 0 0 0 0 0 0 0 0 0 0 36 0 0 0 0 0 0 35 0 0 0 0 0 0 0 0 0 0 0 0 0 0 0 0 0 0 0 0 0 0 0 0 0 0 0 
		36 0 0 0 0 0 0 0 29 0 0 0 0 39 0 0 0 0 0 0 20 0 0 0 37 0 0 0 0 0 0 0 0 0 22 0 0 0 0 0 0 0 0 23 0 0 23 36 0 0 29 0 25 0 0 40 26 0 0 0 0 0 0 0 0 0 37 0 0 0 0 0 22 0 0 25 0 26 
		37 38 0 0 0 0 0 22 0 0 0 0 0 0 0 0 0 0 0 0 0 0 0 0 0 0 0 0 0 0 0 0 0 0 0 0 0 0 0 0 0 0 0 0 0 0 0 0 0 0 0 0 0 0 0 0 0 0 0 0 0 0 0 0 0 0 0 0 0 0 0 0 0 0 0 0 38 20 
		38 0 0 0 0 0 0 0 0 0 0 0 40 0 0 0 0 0 0 21 0 0 0 0 0 0 0 0 30 0 26 0 36 20 0 0 0 0 0 0 0 0 0 0 0 0 0 0 0 0 0 0 0 0 0 20 0 0 0 0 0 0 0 0 0 0 0 0 0 0 0 33 0 0 0 0 0 0 
		39 0 0 0 0 0 0 29 0 0 0 0 0 0 22 38 0 0 0 0 0 0 29 0 0 0 0 0 30 0 0 0 0 0 36 0 0 0 0 0 0 31 0 0 0 0 0 0 0 0 0 0 0 0 0 0 40 0 0 0 0 0 0 0 0 0 0 0 0 0 0 28 0 0 0 0 0 0 
		40 0 0 0 0 0 0 0 0 0 0 0 0 0 0 0 0 0 0 0 36 0 0 0 0 0 0 0 0 0 38 0 0 0 0 0 0 0 0 0 31 0 0 0 0 0 0 0 0 0 0 40 0 0 0 0 0 0 0 0 0 0 0 21 0 0 0 0 36 0 0 0 0 0 0 0 0 30 
		41 0 0 0 0 0 0 0 30 0 0 0 0 0 0 0 0 0 0 0 0 0 0 26 0 0 0 38 0 0 0 0 0 0 0 0 0 0 0 0 0 0 0 29 0 0 0 0 0 0 0 0 0 0 0 0 0 38 0 0 0 0 0 0 0 0 0 0 0 0 0 0 0 24 0 0 40 0 
		42 0 0 0 0 0 0 0 0 0 31 0 0 35 0 0 0 0 0 0 0 0 0 0 40 0 37 0 0 0 0 0 0 0 0 0 36 23 0 0 0 0 29 0 0 0 0 0 24 0 0 0 0 0 0 0 0 34 0 0 0 0 0 0 0 0 24 0 0 35 0 0 0 0 0 23 22 0 
		43 0 0 33 38 0 0 0 0 0 0 0 30 0 0 0 0 0 26 0 0 0 0 0 0 0 0 0 29 0 0 0 0 0 0 0 0 0 0 0 0 0 0 0 0 0 0 0 0 0 0 0 0 0 0 0 0 0 0 0 0 22 0 0 0 0 0 0 32 0 0 0 0 0 0 0 0 0 
		44 0 0 0 0 0 0 0 0 0 30 35 0 34 0 0 0 0 0 0 0 0 0 0 31 0 0 26 0 0 40 0 0 0 0 0 0 0 0 0 0 0 0 0 0 0 0 24 0 0 0 0 0 0 0 24 31 0 0 0 20 0 0 0 0 0 0 36 0 0 0 0 31 0 0 0 0 0 
		45 33 0 0 0 0 0 0 0 32 0 0 0 0 0 0 0 0 0 0 0 0 0 0 0 0 38 25 32 0 0 0 0 0 0 0 0 23 0 0 0 0 0 0 0 0 0 0 0 0 0 34 0 22 0 0 0 0 0 0 28 0 0 0 0 0 0 0 0 0 0 0 0 0 0 0 21 0 
		46 0 0 0 0 23 0 0 0 0 0 0 0 0 0 0 0 0 0 0 0 0 0 0 0 0 20 0 0 0 0 0 0 0 0 0 0 36 0 0 0 0 0 0 0 24 0 0 0 0 0 0 38 0 0 0 0 0 0 0 0 0 0 0 0 0 0 0 21 0 0 22 0 0 0 0 0 0 
		47 0 0 0 0 0 0 0 0 0 0 24 0 32 0 0 0 0 0 0 0 0 0 21 0 0 0 0 0 25 0 0 0 0 34 0 0 0 0 0 0 0 0 24 0 0 0 0 0 0 0 0 0 0 28 0 0 0 0 0 0 27 0 0 0 0 0 0 0 0 0 0 37 0 0 0 0 0 
		48 0 31 0 0 0 0 0 0 38 0 0 0 0 32 0 0 0 0 0 0 39 0 0 0 0 0 0 0 0 0 0 0 0 0 0 0 0 0 0 0 0 0 0 0 0 0 0 0 0 37 0 0 22 0 0 0 0 0 0 0 30 0 0 26 0 0 0 0 35 40 0 0 0 0 0 0 0 
		49 34 0 0 0 35 0 0 0 0 0 0 0 0 29 0 39 0 0 0 38 0 0 0 20 23 0 0 0 0 0 31 0 0 0 35 35 29 0 0 0 0 0 0 0 0 0 0 0 37 0 0 0 0 0 0 0 0 34 0 0 0 0 32 0 0 0 0 0 0 0 0 0 0 0 0 0 0 
		50 34 0 0 0 0 0 0 0 0 0 0 0 0 0 0 0 0 0 0 22 0 0 0 0 0 0 0 20 0 0 0 0 0 0 0 0 0 0 0 0 40 0 0 0 0 34 0 0 0 0 0 0 36 0 0 0 0 0 0 0 0 0 0 0 0 0 0 0 0 0 0 0 0 0 0 31 0 
		51 0 0 0 0 0 0 0 0 0 0 0 0 22 0 0 0 0 0 0 0 0 32 20 0 0 0 40 0 0 0 0 0 0 0 0 0 25 0 0 0 0 0 0 0 0 0 38 0 0 0 0 0 0 0 0 0 0 0 0 0 0 0 0 0 27 0 0 0 20 0 0 25 0 0 30 0 0 
		52 0 0 0 0 0 0 0 0 0 0 0 0 0 0 0 0 40 0 0 0 0 0 0 0 0 0 0 0 0 0 0 0 0 0 25 0 0 0 0 0 0 0 0 0 0 22 0 0 22 0 36 0 0 0 0 0 0 0 0 0 0 0 0 0 0 0 33 0 0 0 0 0 0 0 0 0 0 
		53 0 0 0 0 0 0 25 0 0 0 0 0 0 0 0 0 0 0 39 0 0 0 0 0 0 0 0 0 0 0 0 0 0 0 0 0 0 0 0 0 0 0 0 0 0 0 0 28 0 0 0 0 0 0 0 0 0 22 0 0 0 0 0 0 0 0 0 38 38 0 32 0 0 0 0 35 0 
		54 38 0 0 0 0 0 0 0 0 0 38 0 37 24 0 0 0 0 28 0 0 0 30 0 0 0 0 0 24 34 0 0 0 0 0 0 40 0 20 0 0 0 0 0 24 0 0 0 0 0 0 0 0 0 0 34 0 0 0 0 0 0 0 0 0 0 0 31 0 0 0 0 0 27 0 32 0 
		55 0 0 0 0 0 30 0 0 24 35 0 0 29 0 0 0 0 0 0 0 0 23 32 0 25 0 0 33 0 0 0 0 0 0 0 0 26 0 0 40 0 0 0 0 31 0 0 0 0 0 0 0 0 0 34 0 0 33 0 35 0 0 0 0 0 0 0 0 0 0 0 0 0 0 0 0 0 
		56 0 0 0 0 0 0 0 0 0 0 40 0 0 0 0 0 0 0 0 0 0 37 0 0 0 0 0 0 0 0 0 0 0 0 0 0 0 0 0 0 0 38 34 0 0 0 0 0 0 0 0 0 0 0 0 0 0 0 0 0 0 0 0 0 24 34 0 35 0 0 0 0 26 0 0 26 0 
		57 0 0 0 0 0 29 0 0 0 0 0 0 0 0 0 0 0 0 0 0 0 0 0 0 34 0 0 32 0 0 0 0 0 0 0 0 0 0 0 0 0 0 0 0 0 0 0 0 0 34 0 0 0 22 0 33 0 0 0 0 0 0 0 0 0 0 0 0 0 0 0 0 0 0 0 0 0 
		58 0 0 26 0 0 0 0 0 0 0 24 0 0 0 0 0 0 0 0 0 0 0 0 0 0 0 0 0 28 0 0 0 0 0 0 0 0 0 0 0 0 0 0 0 0 0 0 0 0 0 0 0 0 0 0 0 0 0 0 0 0 0 0 0 0 0 0 0 0 0 0 0 0 0 0 0 0 
		59 0 0 0 0 0 0 0 0 0 0 0 0 0 0 28 0 37 28 0 0 0 0 0 20 0 0 0 0 0 0 0 0 31 0 0 0 0 0 0 0 0 0 0 0 20 28 0 0 0 0 0 0 0 0 0 35 0 0 0 0 0 0 0 0 0 0 0 0 0 0 0 0 0 0 0 0 0 
		60 20 0 0 0 0 0 0 23 0 0 25 0 0 21 0 0 0 20 0 0 0 0 37 0 0 0 0 0 0 30 34 0 0 0 0 0 0 0 0 0 0 0 0 22 0 0 0 27 30 0 0 0 0 0 0 0 0 0 0 0 0 0 0 0 31 31 30 0 35 0 0 0 0 0 0 0 0 
		61 39 0 0 0 39 0 0 0 0 39 0 0 0 0 0 0 0 0 0 38 0 31 0 0 0 28 32 0 0 0 0 0 0 0 0 0 0 0 0 0 0 0 0 0 0 0 0 0 0 0 0 0 0 0 0 0 0 0 0 0 0 0 0 0 21 0 32 35 30 0 0 0 0 0 0 0 0 
		62 0 0 0 0 0 0 0 0 0 0 0 0 0 0 0 0 0 0 0 0 26 0 0 0 0 0 0 0 0 0 0 0 0 0 0 0 0 0 0 0 21 0 0 0 0 0 0 0 0 32 0 0 0 0 0 0 0 0 0 0 0 0 0 0 0 0 0 0 0 0 0 0 0 0 0 0 0 
		63 0 0 0 0 0 0 0 0 0 0 24 0 0 0 0 0 0 0 0 0 0 0 0 0 0 0 0 0 0 0 0 0 0 0 0 0 0 0 0 0 0 0 0 0 0 0 0 0 26 0 0 0 0 0 0 0 0 0 0 0 0 0 0 0 0 0 0 0 0 0 0 0 0 0 0 24 0 
		64 0 0 0 36 0 0 0 0 0 0 0 0 0 0 0 0 0 23 0 0 0 0 0 0 0 0 0 0 31 0 0 0 0 0 0 0 0 0 0 0 0 0 0 0 0 0 0 0 0 0 0 27 0 0 0 0 24 0 0 0 31 21 0 0 0 0 27 0 0 0 0 0 0 0 0 0 0 
		65 0 0 0 0 27 0 0 0 0 0 0 0 0 0 0 0 0 20 0 0 0 0 22 29 0 0 0 0 0 0 0 40 0 0 0 0 37 0 0 0 0 0 24 0 0 0 0 0 0 0 0 0 0 0 0 0 34 0 0 0 31 0 0 0 0 0 0 0 0 22 0 0 0 0 0 0 0 
		66 0 30 0 0 0 0 0 0 0 0 25 0 27 0 31 0 0 0 0 20 0 0 0 0 0 0 0 33 0 0 0 0 0 33 0 0 0 0 0 0 0 0 0 0 36 0 0 0 0 0 0 0 33 0 0 0 0 0 0 0 30 32 0 0 27 0 0 0 0 0 0 0 0 0 0 0 0 
		67 0 0 0 0 0 0 0 24 0 0 0 0 0 0 0 0 0 0 0 0 0 0 0 0 0 0 0 0 0 0 0 0 0 23 0 0 0 0 0 0 36 0 0 32 0 0 21 0 0 0 0 0 0 38 31 0 35 0 0 0 0 35 0 0 0 0 0 0 26 0 0 0 0 0 0 0 0 
		68 29 0 0 0 0 0 0 23 0 27 0 0 0 0 0 0 0 32 24 0 0 38 0 0 0 0 0 0 0 0 0 0 0 32 0 0 0 0 0 0 0 0 35 0 0 0 0 0 35 0 0 20 0 38 0 0 0 0 0 0 35 30 0 0 0 0 0 26 0 0 23 40 0 0 0 0 0 
		69 0 0 0 0 0 0 0 0 27 0 0 0 0 0 0 0 0 0 0 0 0 0 0 0 0 0 0 0 0 0 0 0 0 0 0 0 0 0 0 0 0 0 0 0 0 0 0 0 40 0 0 0 0 0 0 0 0 0 0 0 0 0 0 0 0 22 0 0 0 0 0 0 0 36 0 0 0 
		70 0 35 0 0 0 0 0 0 27 0 23 0 25 0 0 0 0 0 0 0 0 0 0 0 0 0 0 0 0 0 0 0 0 35 0 0 0 0 33 28 0 0 0 0 0 0 22 0 0 0 0 0 0 32 0 0 0 0 0 0 0 0 0 0 0 0 0 0 23 0 0 0 0 0 0 39 0 
		71 0 0 0 0 0 0 0 0 0 0 0 32 0 0 0 0 0 0 0 0 0 0 0 0 0 0 0 0 0 0 0 0 0 0 0 0 22 0 0 0 0 0 0 0 31 0 0 37 0 0 0 25 0 0 0 0 0 0 0 0 0 0 0 0 0 0 0 0 40 0 0 0 0 25 29 0 0 
		72 0 0 0 0 0 0 28 0 28 38 0 0 0 0 0 0 0 0 0 0 23 37 0 0 0 0 0 0 28 0 0 0 0 0 0 0 0 0 0 0 0 24 0 0 0 0 0 0 0 0 0 0 0 0 0 0 26 0 0 0 0 0 0 0 0 0 0 0 0 0 0 0 0 0 0 0 0 
		73 0 0 0 0 0 0 0 0 0 0 0 0 0 0 0 0 33 0 0 0 0 0 0 0 0 0 0 0 0 0 0 0 0 0 0 0 0 0 0 0 0 0 0 0 0 0 0 0 0 0 0 0 0 0 27 0 0 0 0 0 0 0 0 0 0 0 0 0 0 36 0 25 0 0 0 0 0 
		74 0 34 0 0 0 0 0 0 0 0 0 0 0 0 0 0 0 0 0 0 0 0 0 0 0 27 31 0 0 0 0 28 0 0 0 0 25 0 0 0 0 0 23 0 0 0 0 0 0 0 0 30 0 0 0 0 0 0 0 0 0 0 0 0 0 0 0 0 0 0 0 29 0 0 0 25 0 
		75 40 0 0 0 0 0 0 0 40 0 0 0 0 0 0 0 0 0 0 0 0 0 0 27 0 0 0 0 0 0 0 0 0 32 38 0 0 38 0 0 0 40 22 0 0 21 0 0 0 0 31 0 0 35 32 0 26 0 0 0 0 0 0 24 0 0 0 0 0 0 39 0 0 0 25 0 0 
		76 0 0 0 0 0 38 0 30 0 0 0 22 34 0 0 0 0 39 0 20 0 0 0 0 0 0 28 0 0 0 0 0 0 0 0 0 26 20 0 0 30 0 0 0 0 0 0 0 0 0 0 0 0 0 0 0 0 0 0 0 0 0 0 0 0 0 0 0 0 0 0 0 0 0 0 0 0 
;
